 &control

    calculation = 'scf',
    pseudo_dir = './pseudo',
    outdir='./temp.fm'
    prefix='mnau2',
 /
 &system
    ibrav=  0, 
    nat=  6, 
    ntyp= 3,
    ecutwfc = 45.0, ecutrho = 300.0,
    occupations='tetrahedra',
    nspin=2,
    starting_magnetization(1)= 1.0,
    starting_magnetization(2)= 1.0,
 /
 &electrons
    mixing_beta = 0.10 
 /
CELL_PARAMETERS angstrom
3.3948390000         0.0000000000         0.0000000000
0.0000000000         3.3948390000         0.0000000000
0.0000000000         0.0000000000         8.8806360000
ATOMIC_SPECIES
 Mn1    54.938  Mn.pbe-spn-kjpaw_psl.0.3.1.UPF 
 Mn2    54.938  Mn.pbe-spn-kjpaw_psl.0.3.1.UPF 
 Au    196.966  Au.pbe-dn-kjpaw_psl.0.1.UPF 
ATOMIC_POSITIONS crystal
Mn1    0.000000  0.000000  0.000000
Mn2    0.500000  0.500000  0.500000
Au     0.500000  0.500000  0.840319
Au     0.500000  0.500000  0.159681
Au     0.000000  0.000000  0.340319
Au     0.000000  0.000000  0.659681
K_POINTS automatic
8 8 8 0 0 0
