CELL_PARAMETERS angstrom
 3.3700000000         0.0000000000         0.0000000000
 0.0000000000         3.3700000000         0.0000000000
 0.0000000000         0.0000000000         35.034520000
ATOMIC_SPECIES
 Mn1    54.938  Mn.pbe-spn-kjpaw_psl.0.3.1.UPF
 Mn2    54.938  Mn.pbe-spn-kjpaw_psl.0.3.1.UPF
 Mn3    54.938  Mn.pbe-spn-kjpaw_psl.0.3.1.UPF
 Mn4    54.938  Mn.pbe-spn-kjpaw_psl.0.3.1.UPF
 Mn5    54.938  Mn.pbe-spn-kjpaw_psl.0.3.1.UPF
 Mn6    54.938  Mn.pbe-spn-kjpaw_psl.0.3.1.UPF
 Mn7    54.938  Mn.pbe-spn-kjpaw_psl.0.3.1.UPF
 Mn8    54.938  Mn.pbe-spn-kjpaw_psl.0.3.1.UPF
 Au     196.966  Au.pbe-dn-kjpaw_psl.0.1.UPF
ATOMIC_POSITIONS crystal
Mn1 0.0000 0.0000 0.0000
Mn2 0.0000 0.0000 0.2500
Mn3 0.0000 0.0000 0.5000
Mn4 0.0000 0.0000 0.7500
Au  0.5000 0.5000 0.2100
Au  0.5000 0.5000 0.4600
Au  0.5000 0.5000 0.7100
Au  0.5000 0.5000 0.9600
Au  0.5000 0.5000 0.0400
Au  0.5000 0.5000 0.2900
Au  0.5000 0.5000 0.5400
Au  0.5000 0.5000 0.7900
Mn5 0.5000 0.5000 0.1250
Mn6 0.5000 0.5000 0.3750
Mn7 0.5000 0.5000 0.6250
Mn8 0.5000 0.5000 0.8750
Au  0.0000 0.0000 0.0850
Au  0.0000 0.0000 0.3350
Au  0.0000 0.0000 0.5850
Au  0.0000 0.0000 0.8350
Au  0.0000 0.0000 0.1650
Au  0.0000 0.0000 0.4150
Au  0.0000 0.0000 0.6650
Au  0.0000 0.0000 0.9150
