 &control

    calculation = 'scf',
    pseudo_dir = './pseudo',
    outdir='./temp'
    prefix='mnau2',
 /
 &system
    ibrav=  0, 
    nat=  54, 
    ntyp= 3,
    ecutwfc = 45.0, ecutrho = 400.0,
    occupations='tetrahedra'
    nspin=2, 
    starting_magnetization(1)= 0.8,
    starting_magnetization(2)= -0.8,
     /
 &electrons
    mixing_beta = 0.10
 /
CELL_PARAMETERS angstrom
10.1845160000         0.0000000000         0.0000000000
 0.0000000000        10.1845160000         0.0000000000
 0.0000000000         0.0000000000         8.8806360000
ATOMIC_SPECIES
 Mn1    54.938  Mn.pbe-spn-kjpaw_psl.0.3.1.UPF 
 Mn2    54.938  Mn.pbe-spn-kjpaw_psl.0.3.1.UPF 
 Au     196.966  Au.pbe-dn-kjpaw_psl.0.1.UPF 
ATOMIC_POSITIONS crystal
Mn1 0.00000 0.00000 0.00000
Mn1 0.00000 0.33333 0.00000
Mn1 0.00000 0.66667 0.00000
Mn2 0.33333 0.00000 0.00000
Mn1 0.33333 0.33333 0.00000
Mn2 0.33333 0.66667 0.00000
Mn1 0.66667 0.00000 0.00000
Mn2 0.66667 0.33333 0.00000
Mn1 0.66667 0.66667 0.00000
Mn2 0.16667 0.16667 0.50000
Mn2 0.16667 0.50000 0.50000
Mn2 0.16667 0.83333 0.50000
Mn1 0.50000 0.16667 0.50000
Mn2 0.50000 0.50000 0.50000
Mn1 0.50000 0.83333 0.50000
Mn2 0.83333 0.16667 0.50000
Mn1 0.83333 0.50000 0.50000
Mn2 0.83333 0.83333 0.50000
Au 0.16667 0.16667 0.84032
Au 0.16667 0.50000 0.84032
Au 0.16667 0.83333 0.84032
Au 0.50000 0.16667 0.84032
Au 0.50000 0.50000 0.84032
Au 0.50000 0.83333 0.84032
Au 0.83333 0.16667 0.84032
Au 0.83333 0.50000 0.84032
Au 0.83333 0.83333 0.84032
Au 0.16667 0.16667 0.15968
Au 0.16667 0.50000 0.15968
Au 0.16667 0.83333 0.15968
Au 0.50000 0.16667 0.15968
Au 0.50000 0.50000 0.15968
Au 0.50000 0.83333 0.15968
Au 0.83333 0.16667 0.15968
Au 0.83333 0.50000 0.15968
Au 0.83333 0.83333 0.15968
Au 0.00000 0.00000 0.34032
Au 0.00000 0.33333 0.34032
Au 0.00000 0.66667 0.34032
Au 0.33333 0.00000 0.34032
Au 0.33333 0.33333 0.34032
Au 0.33333 0.66667 0.34032
Au 0.66667 0.00000 0.34032
Au 0.66667 0.33333 0.34032
Au 0.66667 0.66667 0.34032
Au 0.00000 0.00000 0.65968
Au 0.00000 0.33333 0.65968
Au 0.00000 0.66667 0.65968
Au 0.33333 0.00000 0.65968
Au 0.33333 0.33333 0.65968
Au 0.33333 0.66667 0.65968
Au 0.66667 0.00000 0.65968
Au 0.66667 0.33333 0.65968
Au 0.66667 0.66667 0.65968
K_POINTS automatic
2 2 2 0 0 0
