&DOS
    outdir='./temp'
    prefix='mnau2'
    fildos='results_MnAu2_nm/mnau2.dos'
    degauss = 0.007d0,
    ngauss = 0
    DeltaE=0.1
 /

