 &control

    calculation = 'scf',
    pseudo_dir = './pseudo',
    outdir='./temp.nm'
    prefix='mnau2',
 /
 &system
    ibrav=  0, 
    nat=  6, 
    ntyp= 6,
    ecutwfc = 30.0, ecutrho = 300.0,
    occupations='smearing', smearing='mv', degauss=0.02,
    nspin=2, 
    starting_magnetization(1)= 0.0,
    starting_magnetization(2)= 0.0,
 /
 &electrons
    mixing_beta = 0.3 
 /
CELL_PARAMETERS angstrom
3.3701300621         0.0000000000         0.0000000000
0.0000000000         3.3701300621         0.0000000000
0.0000000000         0.0000000000         8.7589397430
ATOMIC_SPECIES
 Mn1    1.  Mn.pbe-sp-hgh.UPF
 Mn2    1.  Mn.pbe-sp-hgh.UPF
 Au1    1.  Au.pbe-nd-rrkjus.UPF 
 Au2    1.  Au.pbe-nd-rrkjus.UPF 
 Au3    1.  Au.pbe-nd-rrkjus.UPF 
 Au4    1.  Au.pbe-nd-rrkjus.UPF 
ATOMIC_POSITIONS crystal
Mn1     0.000000000         0.000000000         0.000000000
Mn2     0.500000000         0.500000000         0.500000000
Au1     0.000000000         0.000000000         0.340000004
Au2     0.000000000         0.000000000         0.659999967
Au3     0.500000000         0.500000000         0.840000033
Au4     0.500000000         0.500000000         0.159999996
K_POINTS automatic
16 16 12 0 0 0
