 6.7400000000        -6.7400000000         0.0000000000
-6.7400000000        -6.7400000000         0.0000000000
 1.6850000000         1.6850000000        -4.3793150000
ATOMIC_SPECIES
 Mn1    54.938  Mn.pbe-spn-kjpaw_psl.0.3.1.UPF
 Mn2    54.938  Mn.pbe-spn-kjpaw_psl.0.3.1.UPF
 Mn3    54.938  Mn.pbe-spn-kjpaw_psl.0.3.1.UPF
 Mn4    54.938  Mn.pbe-spn-kjpaw_psl.0.3.1.UPF
 Mn5    54.938  Mn.pbe-spn-kjpaw_psl.0.3.1.UPF
 Mn6    54.938  Mn.pbe-spn-kjpaw_psl.0.3.1.UPF
 Mn7    54.938  Mn.pbe-spn-kjpaw_psl.0.3.1.UPF
 Mn8    54.938  Mn.pbe-spn-kjpaw_psl.0.3.1.UPF
 Au     196.966  Au.pbe-dn-kjpaw_psl.0.1.UPF
ATOMIC_POSITIONS crystal
Mn1 0.5000 0.0000 0.0000
Mn2 0.0000 0.0000 0.0000
Mn3 0.2500 0.2500 0.0000
Mn4 0.7500 0.2500 0.0000
Mn5 0.0000 0.5000 0.0000
Mn6 0.5000 0.5000 0.0000
Mn7 0.2500 0.7500 0.0000
Mn8 0.7500 0.7500 0.0000
Au  0.0000 0.3300 0.3200
Au  0.5000 0.3300 0.3200
Au  0.2500 0.5800 0.3200
Au  0.7500 0.5800 0.3200
Au  0.0000 0.8300 0.3200
Au  0.5000 0.8300 0.3200
Au  0.7500 0.0800 0.3200
Au  0.2500 0.0800 0.3200
Au  0.5000 0.1700 0.6800
Au  0.0000 0.1700 0.6800
Au  0.2500 0.4200 0.6800
Au  0.7500 0.4200 0.6800
Au  0.0000 0.6700 0.6800
Au  0.5000 0.6700 0.6800
Au  0.2500 0.9200 0.6800
Au  0.7500 0.9200 0.6800
