 &control
    pseudo_dir = '.',
    outdir='./tmp'
    !verbosity = 'high',
    prefix='fe',
 /
 &system
    ibrav=  1, celldm(1)=5.42, nat=  2, ntyp= 2,
    ecutwfc = 30.0, ecutrho = 360.0,
    occupations='smearing', smearing='mv', degauss=0.01,
    nspin=2, 
    nbnd = 16,
    starting_magnetization(1)= 1.0
    starting_magnetization(2)= -1.0
 /
 &electrons
    mixing_beta = 0.2 
 /
ATOMIC_SPECIES
 Fe  1.  Fe.pz-nd-rrkjus.UPF
 Fe1 1.  Fe.pz-nd-rrkjus.UPF
ATOMIC_POSITIONS crystal
 Fe 0.0  0.0  0.0 
 Fe1 0.5  0.5  0.5 
K_POINTS automatic
35 35 35 0 0 0
