 &control

    calculation = 'scf',
    pseudo_dir = './pseudo',
    outdir='./temp.z3'
    prefix='mnau2',
 /
 &system
    ibrav=  0, 
    nat=  48, 
    ntyp= 3,
    ecutwfc = 45.0, ecutrho = 400.0,
    occupations='tetrahedra'
    nspin=2, 
    starting_magnetization(1)= 0.8,
    starting_magnetization(2)= -0.8,
    lda_plus_u = .true.,
    lda_plus_u_kind = 1,
    Hubbard_U(1)= 3.12, Hubbard_J(1,1) = 0.7,
    Hubbard_U(2)= 3.12, Hubbard_J(1,2) = 0.7,
 /
 &electrons
    mixing_beta = 0.10
 /
CELL_PARAMETERS angstrom
 6.7896770400         0.0000000000         0.0000000000
 0.0000000000         3.3948385200         0.0000000000
 0.0000000000         0.0000000000        35.5225455600
ATOMIC_SPECIES
 Mn1   54.938  Mn.pbe-spn-kjpaw_psl.0.3.1.UPF 
 Mn2   54.938  Mn.pbe-spn-kjpaw_psl.0.3.1.UPF 
 Au   196.966  Au.pbe-dn-kjpaw_psl.0.1.UPF 
ATOMIC_POSITIONS crystal
Mn1 0.000000 0.000000 0.000000
Mn1 0.000000 0.000000 0.250000
Mn1 0.000000 0.000000 0.500000
Mn1 0.000000 0.000000 0.750000
Mn2 0.500000 0.000000 0.000000
Mn2 0.500000 0.000000 0.250000
Mn2 0.500000 0.000000 0.500000
Mn2 0.500000 0.000000 0.750000
Mn1 0.250000 0.500000 0.125000
Mn1 0.250000 0.500000 0.375000
Mn1 0.250000 0.500000 0.625000
Mn1 0.250000 0.500000 0.875000
Mn2 0.750000 0.500000 0.125000
Mn2 0.750000 0.500000 0.375000
Mn2 0.750000 0.500000 0.625000
Mn2 0.750000 0.500000 0.875000
Au  0.250000 0.500000 0.210080
Au  0.250000 0.500000 0.460080
Au  0.250000 0.500000 0.710080
Au  0.250000 0.500000 0.960080
Au  0.750000 0.500000 0.210080
Au  0.750000 0.500000 0.460080
Au  0.750000 0.500000 0.710080
Au  0.750000 0.500000 0.960080
Au  0.250000 0.500000 0.039920
Au  0.250000 0.500000 0.289920
Au  0.250000 0.500000 0.539920
Au  0.250000 0.500000 0.789920
Au  0.750000 0.500000 0.039920
Au  0.750000 0.500000 0.289920
Au  0.750000 0.500000 0.539920
Au  0.750000 0.500000 0.789920
Au  0.000000 0.000000 0.085080
Au  0.000000 0.000000 0.335080
Au  0.000000 0.000000 0.585080
Au  0.000000 0.000000 0.835080
Au  0.500000 0.000000 0.085080
Au  0.500000 0.000000 0.335080
Au  0.500000 0.000000 0.585080
Au  0.500000 0.000000 0.835080
Au  0.000000 0.000000 0.164920
Au  0.000000 0.000000 0.414920
Au  0.000000 0.000000 0.664920
Au  0.000000 0.000000 0.914920
Au  0.500000 0.000000 0.164920
Au  0.500000 0.000000 0.414920
Au  0.500000 0.000000 0.664920
Au  0.500000 0.000000 0.914920
K_POINTS automatic
2 2 2 0 0 0
