 &control

    calculation = 'scf',
    pseudo_dir = './pseudo',
    outdir='./temp.8'
    prefix='mnau2',
 /
 &system
    ibrav=  0, 
    nat=  24, 
    ntyp= 3,
    ecutwfc = 45.0, ecutrho = 400.0,
    occupations='tetrahedra'
    nspin=2,
    starting_magnetization(1)= 0.8,
    starting_magnetization(2)= -0.8,
    lda_plus_u = .true.,
    lda_plus_u_kind = 1,
    Hubbard_U(1)= 3.12, Hubbard_J(1,1) = 0.7,
    Hubbard_U(2)= 3.12, Hubbard_J(1,2) = 0.7,
 /
 &electrons
    mixing_beta = 0.10
 /
CELL_PARAMETERS angstrom
 3.3700000000         0.0000000000         0.0000000000
 0.0000000000         3.3700000000         0.0000000000
 0.0000000000         0.0000000000         35.034520000
ATOMIC_SPECIES
 Mn1   54.938  Mn.pbe-spn-kjpaw_psl.0.3.1.UPF 
 Mn2   54.938  Mn.pbe-spn-kjpaw_psl.0.3.1.UPF 
 Au   196.966  Au.pbe-dn-kjpaw_psl.0.1.UPF 
ATOMIC_POSITIONS crystal
Mn1 0.0000 0.0000 0.0000
Mn1 0.0000 0.0000 0.2500
Mn1 0.0000 0.0000 0.5000
Mn1 0.0000 0.0000 0.7500
Mn2 0.5000 0.5000 0.1250
Mn1 0.5000 0.5000 0.3750
Mn2 0.5000 0.5000 0.6250
Mn2 0.5000 0.5000 0.8750
Au 0.5000 0.5000 0.2100
Au 0.5000 0.5000 0.4600
Au 0.5000 0.5000 0.7100
Au 0.5000 0.5000 0.9600
Au 0.5000 0.5000 0.0400
Au 0.5000 0.5000 0.2900
Au 0.5000 0.5000 0.5400
Au 0.5000 0.5000 0.7900
Au 0.0000 0.0000 0.0850
Au 0.0000 0.0000 0.3350
Au 0.0000 0.0000 0.5850
Au 0.0000 0.0000 0.8350
Au 0.0000 0.0000 0.1650
Au 0.0000 0.0000 0.4150
Au 0.0000 0.0000 0.6650
Au 0.0000 0.0000 0.9150
K_POINTS automatic
16 16 4 0 0 0
