 &control

    calculation = 'scf',
    pseudo_dir = './pseudo',
    outdir='./temp.1'
    prefix='mnau2',
 /
 &system
    ibrav=  0, 
    nat=  24, 
    ntyp= 3,
    ecutwfc = 45.0, ecutrho = 400.0,
    occupations='tetrahedra'
    nspin=2,
    starting_magnetization(1)=1.0,
    starting_magnetization(2)=-1.0,
    lda_plus_u = .true.
    lda_plus_u_kind = 1
    Hubbard_U(1)= 3.12, Hubbard_J(1,1) = 0.7,
    Hubbard_U(2)= 3.12, Hubbard_J(1,2) = 0.7,
 /
 &electrons
    mixing_beta = 0.10
 /
CELL_PARAMETERS angstrom
 6.7400000000        -6.7400000000         0.0000000000
-6.7400000000        -6.7400000000         0.0000000000
 1.6850000000         1.6850000000        -4.3793150000
ATOMIC_SPECIES
 Mn1    54.938  Mn.pbe-spn-kjpaw_psl.0.3.1.UPF
 Mn2    54.938  Mn.pbe-spn-kjpaw_psl.0.3.1.UPF
 Au     196.966  Au.pbe-dn-kjpaw_psl.0.1.UPF
ATOMIC_POSITIONS crystal
Mn1 0.5000 0.0000 0.0000
Mn1 0.0000 0.0000 0.0000
Mn1 0.2500 0.2500 0.0000
Mn2 0.7500 0.2500 0.0000
Mn1 0.0000 0.5000 0.0000
Mn1 0.5000 0.5000 0.0000
Mn1 0.2500 0.7500 0.0000
Mn2 0.7500 0.7500 0.0000
Au  0.0000 0.3300 0.3200
Au  0.5000 0.3300 0.3200
Au  0.2500 0.5800 0.3200
Au  0.7500 0.5800 0.3200
Au  0.0000 0.8300 0.3200
Au  0.5000 0.8300 0.3200
Au  0.7500 0.0800 0.3200
Au  0.2500 0.0800 0.3200
Au  0.5000 0.1700 0.6800
Au  0.0000 0.1700 0.6800
Au  0.2500 0.4200 0.6800
Au  0.7500 0.4200 0.6800
Au  0.0000 0.6700 0.6800
Au  0.5000 0.6700 0.6800
Au  0.2500 0.9200 0.6800
Au  0.7500 0.9200 0.6800
K_POINTS automatic
4 4 4 0 0 0
