 &control
    pseudo_dir = '.',
    outdir='temp'
    !verbosity = 'high',
    prefix='fe',
 /
 &system
    ibrav=  3, celldm(1)=5.42, nat=  1, ntyp= 1,
    ecutwfc = 30.0, ecutrho = 360.0,
    occupations='smearing', smearing='mv', degauss=0.01,
    nbnd = 8,
    nspin=2, 
    starting_magnetization(1)= 1.0
 /
 &electrons
    mixing_beta = 0.5 
 /
ATOMIC_SPECIES
 Fe  1.  Fe.pz-nd-rrkjus.UPF
ATOMIC_POSITIONS crystal
 Fe 0.0  0.0  0.0 
K_POINTS automatic
8 8 8 0 0 0
