 &control
    pseudo_dir = '.',
    outdir='./tmp'
    prefix='fe_g',
 /
 &system
    ibrav=  0, nat=  4, ntyp= 2,
    ecutwfc = 50.0, ecutrho = 500.0,
    occupations='smearing', smearing='mv', degauss=0.02,
    nspin=2, 
    nbnd = 32,
    starting_magnetization(1)= 1, starting_magnetization(2)=-1,
 /
 &electrons
    mixing_beta = 0.3 
 /
CELL_PARAMETERS angstrom
 4.053843 0.000000 0.000000
 0.000000 4.053843 0.000000 
 0.000000 0.000000 2.866500
ATOMIC_SPECIES
 Fe  1.   Fe.pbe-spn-kjpaw_psl.0.2.1.UPF
 Fe1 1.   Fe.pbe-spn-kjpaw_psl.0.2.1.UPF
ATOMIC_POSITIONS crystal
 Fe   0.00  0.00  0.00
 Fe1  0.50  0.50  0.00
 Fe   0.50  0.00  0.50 
 Fe1  1.00  0.50  0.50
K_POINTS automatic
16 16 16 0 0 0
