 &PROJWFC
    outdir='./temp '
    prefix='mnau2'
    degauss = 0.007d0,
    ngauss = 0
    DeltaE=0.1
 /

